c 1 save_headers
c 2 convert_links
c 3 wget
c 4 server_response
c 5 no_dns_cache
c 6 output_file
c 7 verbose
c 8 strict_comments
c 9 no_verbose
c 10 no_http_keep_alive
c 11 no_host_directories
c 12 no_directories
c 13 no_cookies
c 14 quiet
c 15 no_clobber
c 16 verbosity
c 17 base
p cnf 17 22
3 0
3 -17 0
3 -6 0
3 -4 0
3 -15 0
3 -5 0
3 -16 0
3 -12 0
3 -11 0
3 -10 0
3 -13 0
3 -1 0
3 -2 0
3 -8 0
17 -3 0
16 -9 0
16 -7 0
16 -14 0
9 7 14 -16 0
-9 -7 0
-9 -14 0
-7 -14 0
